2308541.0
1112
0 1 2 3 5 6 7 8 9 11 12 13 17 19 20 22 23 26 27 30 32 33 35 39 40 41 42 46 47 48 49 50 51 52 53 55 56 58 60 63 64 65 66 67 68 70 71 72 73 74 75 76 78 80 82 84 85 86 87 92 94 96 97 98 99 